p cnf 66 271
-1 5 6 7 8 0
-5 -6 0
-5 -7 0
-5 -8 0
-6 -7 0
-6 -8 0
-7 -8 0
1 -5 0
1 -6 0
1 -7 0
1 -8 0
-2 9 10 11 12 0
-9 -10 0
-9 -11 0
-9 -12 0
-10 -11 0
-10 -12 0
-11 -12 0
2 -9 0
2 -10 0
2 -11 0
2 -12 0
-3 13 14 15 16 0
-13 -14 0
-13 -15 0
-13 -16 0
-14 -15 0
-14 -16 0
-15 -16 0
3 -13 0
3 -14 0
3 -15 0
3 -16 0
-4 17 18 19 20 0
-17 -18 0
-17 -19 0
-17 -20 0
-18 -19 0
-18 -20 0
-19 -20 0
4 -17 0
4 -18 0
4 -19 0
4 -20 0
1 2 0
1 3 0
-1 3 2 0
-2 4 1 3 0
-3 1 4 2 0
-4 2 3 0
-1 1 0
-21 -1 1 0
-21 1 -1 0
21 1 1 0
21 -1 -1 0
-21 -2 3 0
-22 21 0
-22 -2 3 0
-22 2 -3 0
22 -21 2 3 0
22 -21 -2 -3 0
-22 -3 2 0
-23 22 0
-23 -3 2 0
-23 3 -2 0
23 -22 3 2 0
23 -22 -3 -2 0
-23 -4 4 0
-24 23 0
-24 -4 4 0
-24 4 -4 0
24 -23 4 4 0
24 -23 -4 -4 0
-6 0
-10 5 0
-14 5 9 0
-18 5 9 13 0
-7 0
-11 6 0
-15 6 10 0
-19 6 10 14 0
-8 0
-12 7 0
-16 7 11 0
-20 7 11 15 0
5 9 13 17 0
6 10 14 18 0
7 11 15 19 0
8 12 16 20 0
-25 5 6 0
-25 13 14 0
-25 -5 -13 0
-25 -6 -14 0
-26 5 6 0
-26 9 10 0
-26 -5 -9 0
-26 -6 -10 0
-27 9 10 0
-27 17 18 0
-27 -9 -17 0
-27 -10 -18 0
-28 9 10 0
-28 13 14 0
-28 -9 -13 0
-28 -10 -14 0
-29 13 14 0
-29 17 18 0
-29 -13 -17 0
-29 -14 -18 0
25 26 27 28 29 0
-30 5 7 0
-30 13 15 0
-30 -5 -13 0
-30 -7 -15 0
-31 5 7 0
-31 9 11 0
-31 -5 -9 0
-31 -7 -11 0
-32 9 11 0
-32 17 19 0
-32 -9 -17 0
-32 -11 -19 0
-33 9 11 0
-33 13 15 0
-33 -9 -13 0
-33 -11 -15 0
-34 13 15 0
-34 17 19 0
-34 -13 -17 0
-34 -15 -19 0
30 31 32 33 34 0
-35 5 8 0
-35 13 16 0
-35 -5 -13 0
-35 -8 -16 0
-36 5 8 0
-36 9 12 0
-36 -5 -9 0
-36 -8 -12 0
-37 9 12 0
-37 17 20 0
-37 -9 -17 0
-37 -12 -20 0
-38 9 12 0
-38 13 16 0
-38 -9 -13 0
-38 -12 -16 0
-39 13 16 0
-39 17 20 0
-39 -13 -17 0
-39 -16 -20 0
35 36 37 38 39 0
-40 6 7 0
-40 14 15 0
-40 -6 -14 0
-40 -7 -15 0
-41 6 7 0
-41 10 11 0
-41 -6 -10 0
-41 -7 -11 0
-42 10 11 0
-42 18 19 0
-42 -10 -18 0
-42 -11 -19 0
-43 10 11 0
-43 14 15 0
-43 -10 -14 0
-43 -11 -15 0
-44 14 15 0
-44 18 19 0
-44 -14 -18 0
-44 -15 -19 0
40 41 42 43 44 0
-45 6 8 0
-45 14 16 0
-45 -6 -14 0
-45 -8 -16 0
-46 6 8 0
-46 10 12 0
-46 -6 -10 0
-46 -8 -12 0
-47 10 12 0
-47 18 20 0
-47 -10 -18 0
-47 -12 -20 0
-48 10 12 0
-48 14 16 0
-48 -10 -14 0
-48 -12 -16 0
-49 14 16 0
-49 18 20 0
-49 -14 -18 0
-49 -16 -20 0
45 46 47 48 49 0
-50 7 8 0
-50 15 16 0
-50 -7 -15 0
-50 -8 -16 0
-51 7 8 0
-51 11 12 0
-51 -7 -11 0
-51 -8 -12 0
-52 11 12 0
-52 19 20 0
-52 -11 -19 0
-52 -12 -20 0
-53 11 12 0
-53 15 16 0
-53 -11 -15 0
-53 -12 -16 0
-54 15 16 0
-54 19 20 0
-54 -15 -19 0
-54 -16 -20 0
50 51 52 53 54 0
-55 1 0
55 -1 0
-56 2 0
-56 -1 0
56 -2 1 0
-57 3 0
-57 -1 0
-57 -2 0
57 -3 1 2 0
-58 4 0
-58 -1 0
-58 -2 0
-58 -3 0
58 -4 1 2 3 0
-55 5 0
-56 9 0
-57 13 0
-58 17 0
-55 59 0
55 -59 0
-56 61 0
56 -61 0
-57 63 0
57 -63 0
-58 65 0
58 -65 0
-59 60 0
-1 -63 60 0
-1 -61 60 0
-60 59 1 0
-60 59 63 61 0
-61 62 0
-2 -65 62 0
-2 -59 62 0
-2 -63 62 0
-62 61 2 0
-62 61 65 59 63 0
-63 64 0
-3 -59 64 0
-3 -65 64 0
-3 -61 64 0
-64 63 3 0
-64 63 59 65 61 0
-65 66 0
-4 -61 66 0
-4 -63 66 0
-66 65 4 0
-66 65 61 63 0
-1 60 0
-2 62 0
-3 64 0
-4 66 0
1 0
2 0
3 0
4 0
